22 96 
6 98 
72 19 
82 14 
24 10 
87 75 
62 48 
62 9 
11 86 
74 13 
3 91 
60 85 
13 37 
40 19 
21 15 
25 44 
64 83 
94 88 
55 77 
2 79 
39 41 
6 53 
89 21 
15 52 
59 89 
65 62 
33 25 
99 98 
14 39 
18 88 
7 95 
84 23 
31 78 
11 86 
7 65 
17 47 
6 23 
52 47 
96 67 
99 56 
9 16 
70 42 
94 70 
40 8 
61 10 
48 20 
58 32 
43 89 
11 54 
75 18 
